Nd Ca Fe  O 
1.0
        5.6800179482         0.0000000000         0.0000000000
        0.0000000000        24.3015098572         0.0000000000
        0.0000000000         0.0000000000         5.7418723106
   Nd   Ca   Fe    O
    4    8   12   32
Direct
     0.249919450         0.000015908         0.244096538
     0.249919450         0.499984067         0.244096538
     0.750080529         0.999984067         0.755903441
     0.750080529         0.500015933         0.755903441
     0.263053964         0.341960554         0.248808586
     0.236928701         0.841981746         0.248571388
     0.763071278         0.158018274         0.751428612
     0.736946141         0.658039446         0.751191434
     0.263053964         0.158039466         0.248808586
     0.236928701         0.658018294         0.248571388
     0.763071278         0.341981746         0.751428612
     0.736946141         0.841960554         0.751191434
     0.254284742         0.077922134         0.741903034
     0.245771987         0.577927225         0.741817913
     0.754227992         0.422072814         0.258182108
     0.745715300         0.922077798         0.258096986
     0.254284742         0.422077876         0.741903034
     0.245771987         0.922072853         0.741817913
     0.754227992         0.077927186         0.258182108
     0.745715300         0.577922163         0.258096986
     0.274559429         0.249999980         0.698501417
     0.225457592         0.749999961         0.698137263
     0.774542366         0.249999980         0.301862737
     0.725440550         0.749999961         0.301498583
     0.016150167         0.412730055         0.486729481
     0.983849795         0.912730015         0.513270560
     0.016150167         0.087269935         0.486729481
     0.983849795         0.587269828         0.513270560
     0.516130267         0.087287840         0.513322962
     0.483869691         0.587287723         0.486677038
     0.516130267         0.412712160         0.513322962
     0.483869691         0.912712120         0.486677038
     0.994513788         0.064941421         0.991416989
     0.005486164         0.564941421         0.008583061
     0.994513788         0.435058579         0.991416989
     0.005486164         0.935058500         0.008583061
     0.494506316         0.435048415         0.008653459
     0.505493642         0.935048375         0.991346567
     0.494506316         0.064951605         0.008653459
     0.505493642         0.564951585         0.991346567
     0.081297530         0.249999980         0.428690996
     0.918702460         0.749999961         0.571308962
     0.581326923         0.249999980         0.571703387
     0.418673077         0.749999961         0.428296654
     0.249998405        -0.000000000         0.662475245
     0.249998405         0.500000589         0.662475245
     0.750001532         0.000000000         0.337524734
     0.750001532         0.499999451         0.337524734
     0.245891847         0.323860195         0.803435081
     0.254112812         0.823852778         0.803174152
     0.745887146         0.176147262         0.196825890
     0.754108111         0.676139845         0.196564960
     0.245891847         0.176139825         0.803435081
     0.254112812         0.676147301         0.803174152
     0.745887146         0.323852738         0.196825890
     0.754108111         0.823860234         0.196564960
