Nd Ca Fe  O 
1.0
        5.6095247269         0.0000000000         0.0000000000
        0.0000000000        22.5286846161         0.0000000000
        0.0000000000         0.0000000000        11.1528615952
   Nd   Ca   Fe    O
    8   16   24   64
Direct
     0.186319526         0.000000000         0.117273489
     0.186319526         0.000000000         0.617273490
     0.186319526         0.499999661         0.117273489
     0.186319526         0.499999661         0.617273490
     0.686319547         0.000000000         0.382726489
     0.686319547         0.000000000         0.882726489
     0.686319547         0.500000339         0.382726489
     0.686319547         0.500000339         0.882726489
     0.285853627         0.341621598         0.114826638
     0.285853627         0.341621598         0.614826638
     0.285850886         0.841621810         0.114826201
     0.285850886         0.841621810         0.614826201
     0.785850864         0.158378211         0.385173767
     0.785850864         0.158378211         0.885173767
     0.785853584         0.658378402         0.385173340
     0.785853584         0.658378402         0.885173340
     0.285853627         0.158378380         0.114826638
     0.285853627         0.158378380         0.614826638
     0.285850886         0.658378232         0.114826201
     0.285850886         0.658378232         0.614826201
     0.785850864         0.341621789         0.385173767
     0.785850864         0.341621789         0.885173767
     0.785853584         0.841621641         0.385173340
     0.785853584         0.841621641         0.885173340
     0.238841214         0.087006675         0.368901631
     0.238841214         0.087006675         0.868901631
     0.238841426         0.587005786         0.368899750
     0.238841426         0.587005786         0.868899750
     0.738841448         0.412994171         0.131100208
     0.738841448         0.412994171         0.631100208
     0.738841278         0.912993325         0.131098358
     0.738841278         0.912993325         0.631098358
     0.238841214         0.412993325         0.368901631
     0.238841214         0.412993325         0.868901631
     0.238841426         0.912994171         0.368899750
     0.238841426         0.912994171         0.868899750
     0.738841448         0.087005824         0.131100208
     0.738841448         0.087005824         0.631100208
     0.738841278         0.587006675         0.131098358
     0.738841278         0.587006675         0.631098358
     0.295878596         0.250000000         0.345002207
     0.295878596         0.250000000         0.845002207
     0.295877343         0.749999979         0.345004324
     0.295877343         0.749999979         0.845004324
     0.795877279         0.250000000         0.154995676
     0.795877279         0.250000000         0.654995676
     0.795878554         0.749999979         0.154997793
     0.795878554         0.749999979         0.654997793
     0.032370564         0.398062984         0.226977389
     0.032370564         0.398062984         0.726977390
     0.032369212         0.898063069         0.226976941
     0.032369212         0.898063069         0.726976940
     0.032370564         0.101937037         0.226977389
     0.032370564         0.101937037         0.726977390
     0.032369212         0.601936804         0.226976941
     0.032369212         0.601936804         0.726976940
     0.532369191         0.101936899         0.273023059
     0.532369191         0.101936899         0.773023060
     0.532370551         0.601936931         0.273022589
     0.532370551         0.601936931         0.773022589
     0.532369191         0.398063111         0.273023059
     0.532369191         0.398063111         0.773023060
     0.532370551         0.898062984         0.273022589
     0.532370551         0.898062984         0.773022589
     0.948864020         0.069829016         0.481003150
     0.948864020         0.069829016         0.981003150
     0.948865805         0.569829037         0.481001782
     0.948865805         0.569829037         0.981001782
     0.948864020         0.430170963         0.481003150
     0.948864020         0.430170963         0.981003150
     0.948865805         0.930170963         0.481001782
     0.948865805         0.930170963         0.981001782
     0.448865847         0.430170920         0.018998259
     0.448865847         0.430170920         0.518998260
     0.448864062         0.930170963         0.018996831
     0.448864062         0.930170963         0.518996831
     0.448865847         0.069829074         0.018998259
     0.448865847         0.069829074         0.518998260
     0.448864062         0.569829037         0.018996831
     0.448864062         0.569829037         0.518996831
     0.137110650         0.250000000         0.189401274
     0.137110650         0.250000000         0.689401274
     0.137111723         0.749999979         0.189402429
     0.137111723         0.749999979         0.689402429
     0.637111734         0.250000000         0.310597571
     0.637111734         0.250000000         0.810597571
     0.637110671         0.749999979         0.310598726
     0.637110671         0.749999979         0.810598726
     0.265912898         0.000000000         0.326500243
     0.265912898         0.000000000         0.826500243
     0.265912898         0.500000042         0.326500243
     0.265912898         0.500000042         0.826500243
     0.765912877         0.000000000         0.173499768
     0.765912877         0.000000000         0.673499768
     0.765912877         0.500000000         0.173499768
     0.765912877         0.500000000         0.673499768
     0.201461451         0.321463014         0.417485882
     0.201461451         0.321463014         0.917485882
     0.201460134         0.821463353         0.417485967
     0.201460134         0.821463353         0.917485967
     0.701460112         0.178536626         0.082514016
     0.701460112         0.178536626         0.582514017
     0.701461430         0.678536943         0.082514123
     0.701461430         0.678536943         0.582514123
     0.201461451         0.178536986         0.417485882
     0.201461451         0.178536986         0.917485882
     0.201460134         0.678536647         0.417485967
     0.201460134         0.678536647         0.917485967
     0.701460112         0.321463374         0.082514016
     0.701460112         0.321463374         0.582514017
     0.701461430         0.821463014         0.082514123
     0.701461430         0.821463014         0.582514123
