findsym-output Pbam
1.0
        5.5355443954         0.0000000000         0.0000000000
        0.0000000000        22.5120067596         0.0000000000
        0.0000000000         0.0000000000        11.2799797058
   Nd   Ca   Fe    O
    8   16   24   64
Direct
     0.256237726        -0.000000000         0.116699214
     0.243762296         0.000000000         0.616699214
     0.256237726         0.499999280         0.116699214
     0.243762296         0.499999280         0.616699214
     0.756237683        -0.000000000         0.383300786
     0.743762317         0.000000000         0.883300744
     0.756237683         0.500000720         0.383300786
     0.743762317         0.500000720         0.883300744
     0.213048991         0.342567617         0.115299781
     0.286951009         0.342567617         0.615299770
     0.213049638         0.842568379         0.115304167
     0.286950341         0.842568379         0.615304167
     0.713049659         0.157431621         0.384695833
     0.786950384         0.157431621         0.884695833
     0.713049013         0.657432383         0.384700230
     0.786950987         0.657432383         0.884700230
     0.213048991         0.157432373         0.115299781
     0.286951009         0.157432373         0.615299770
     0.213049638         0.657431621         0.115304167
     0.286950341         0.657431621         0.615304167
     0.713049659         0.342568400         0.384695833
     0.786950384         0.342568400         0.884695833
     0.713049013         0.842567617         0.384700230
     0.786950987         0.842567617         0.884700230
     0.238526927         0.087160551         0.368633452
     0.261473051         0.087160551         0.868633409
     0.238528284         0.587160647         0.368636664
     0.261471716         0.587160647         0.868636707
     0.738528306         0.412839353         0.131363336
     0.761471694         0.412839353         0.631363336
     0.738526927         0.912839396         0.131366570
     0.761473073         0.912839396         0.631366548
     0.238526927         0.412839438         0.368633452
     0.261473051         0.412839438         0.868633409
     0.238528284         0.912839311         0.368636664
     0.261471716         0.912839311         0.868636707
     0.738528306         0.087160641         0.131363336
     0.761471694         0.087160641         0.631363336
     0.738526927         0.587160604         0.131366570
     0.761473073         0.587160604         0.631366548
     0.188407183         0.250000000         0.344374952
     0.311592817         0.250000000         0.844374952
     0.188405891         0.749999979         0.344377192
     0.311594109         0.749999979         0.844377234
     0.688405891         0.250000000         0.155622808
     0.811594109         0.250000000         0.655622766
     0.688407183         0.749999979         0.155625059
     0.811592817         0.749999979         0.655625091
     0.971506549         0.396200809         0.258803664
     0.028495990         0.396201190         0.741191855
     0.971503964         0.896201190         0.258808187
     0.028493446         0.896200851         0.741196336
     0.971506549         0.103799170         0.258803664
     0.028495990         0.103798821         0.741191855
     0.971503964         0.603798768         0.258808187
     0.028493446         0.603799064         0.741196336
     0.471504008         0.103798821         0.241191834
     0.528493451         0.103799170         0.758803664
     0.471506549         0.603799064         0.241196315
     0.528495949         0.603798768         0.758808230
     0.471504008         0.396201190         0.241191834
     0.528493451         0.396200809         0.758803664
     0.471506549         0.896200851         0.241196315
     0.528495949         0.896201190         0.758808230
     0.000000000         0.069661203         0.999998055
    -0.000000000         0.068821998         0.499998098
     0.000000000         0.569661203         0.000001895
    -0.000000000         0.568822035         0.500001902
     0.000000000         0.430338797         0.999998055
    -0.000000000         0.431178007         0.499998098
    -0.000000000         0.930338755         0.000001895
     0.000000000         0.931177965         0.500001902
     0.499999742         0.431178007         0.999998055
     0.500000904         0.430338797         0.499998098
     0.500000258         0.931177965         0.000001905
     0.499999139         0.930338755         0.500001902
     0.499999742         0.068821998         0.999998055
     0.500000904         0.069661203         0.499998098
     0.500000258         0.568822035         0.000001905
     0.499999139         0.569661203         0.500001902
     0.841573406         0.250000000         0.311525547
     0.158425151         0.250000000         0.688471367
     0.841574871         0.749999979         0.311528675
     0.158426615         0.749999979         0.688474495
     0.341574849         0.250000000         0.188471346
     0.658426637         0.250000000         0.811525547
     0.341573385         0.749999979         0.188474474
     0.658425173         0.749999979         0.811528675
     0.232696562         0.000000000         0.324869508
     0.267303438        -0.000000000         0.824869487
     0.232696562         0.500000254         0.324869508
     0.267303438         0.500000254         0.824869487
     0.732696562         0.000000000         0.175130513
     0.767303438         0.000000000         0.675130471
     0.732696562         0.499999788         0.175130513
     0.767303438         0.499999788         0.675130471
     0.271776566         0.321748318         0.417491509
     0.228223434         0.321748318         0.917491551
     0.271772647         0.821748275         0.417494933
     0.228227353         0.821748275         0.917494933
     0.771772604         0.178251682         0.082505062
     0.728227310         0.178251682         0.582505067
     0.771776566         0.678251682         0.082508480
     0.728223434         0.678251682         0.582508491
     0.271776566         0.178251682         0.417491509
     0.228223434         0.178251682         0.917491551
     0.271772647         0.678251682         0.417494933
     0.228227353         0.678251682         0.917494933
     0.771772604         0.321748296         0.082505062
     0.728227310         0.321748296         0.582505067
     0.771776566         0.821748275         0.082508480
     0.728223434         0.821748275         0.582508491
