Nd Ca Fe  O 
1.0
        5.5798778534         0.0000000000         0.0000000000
        0.0000000000        22.6841869354         0.0000000000
        0.0000000000         0.0000000000         5.5896039009
   Nd   Ca   Fe    O
    4    8   12   32
Direct
     0.250000000        -0.000000000         0.232330652
     0.250000000         0.500000000         0.232330652
     0.750000000        -0.000000000         0.767669327
     0.750000000         0.500000000         0.767669327
     0.250000000         0.338453300         0.265420356
     0.250000000         0.838453089         0.265422275
     0.750000000         0.161546932         0.734577725
     0.750000000         0.661546700         0.734579687
     0.250000000         0.161546711         0.265420356
     0.250000000         0.661546953         0.265422275
     0.750000000         0.338453047         0.734577725
     0.750000000         0.838453258         0.734579687
     0.250000000         0.086420305         0.746812749
     0.250000000         0.586417383         0.746808995
     0.750000000         0.413582659         0.253190962
     0.750000000         0.913579674         0.253187272
     0.250000000         0.413579716         0.746812749
     0.250000000         0.913582617         0.746808995
     0.750000000         0.086417362         0.253190962
     0.750000000         0.586420368         0.253187272
     0.250000000         0.250000000         0.727858707
     0.250000000         0.749999979         0.727876878
     0.750000000         0.250000000         0.272123058
     0.750000000         0.749999979         0.272141314
     0.000000000         0.394939749         0.500000256
    -0.000000000         0.894939707         0.499999744
    -0.000000000         0.105060251         0.500000256
    -0.000000000         0.605060209         0.499999744
     0.499999915         0.105060251         0.500000256
     0.500000043         0.605060209         0.499999744
     0.499999915         0.394939749         0.500000256
     0.500000043         0.894939707         0.499999744
    -0.000000000         0.066803323         0.000000000
     0.000000000         0.566803318         0.000000000
    -0.000000000         0.433196640         0.000000000
     0.000000000         0.933196682         0.000000000
     0.499999744         0.433196640         0.000000000
     0.500000256         0.933196682         0.000000000
     0.499999744         0.066803323         0.000000000
     0.500000256         0.566803318         0.000000000
     0.999997693         0.250000000         0.499996033
     0.000002334         0.749999979         0.500004009
     0.500002307         0.250000000         0.499996033
     0.499997650         0.749999979         0.500004009
     0.250000000         0.000000000         0.649300744
     0.250000000         0.499999453         0.649300744
     0.750000000        -0.000000000         0.350699256
     0.750000000         0.500000547         0.350699256
     0.250000000         0.324221854         0.866900882
     0.250000000         0.824222926         0.866903783
     0.750000000         0.175777053         0.133096185
     0.750000000         0.675778167         0.133099128
     0.250000000         0.175778146         0.866900882
     0.250000000         0.675777074         0.866903783
     0.750000000         0.324222947         0.133096185
     0.750000000         0.824221833         0.133099128
