Nd Ca Fe  O 
1.0
        5.6095247269         0.0000000000         0.0000000000
        0.0000000000        22.5286846161         0.0000000000
        0.0000000000         0.0000000000         5.5764307976
   Nd   Ca   Fe    O
    4    8   12   32
Direct
     0.186319526        -0.000000000         0.234546979
     0.186319526         0.499999661         0.234546979
     0.686319547        -0.000000000         0.765452978
     0.686319547         0.500000339         0.765452978
     0.285853627         0.341621598         0.229653277
     0.285850886         0.841621810         0.229652401
     0.785850864         0.158378211         0.770347535
     0.785853584         0.658378402         0.770346680
     0.285853627         0.158378380         0.229653277
     0.285850886         0.658378232         0.229652401
     0.785850864         0.341621789         0.770347535
     0.785853584         0.841621641         0.770346680
     0.238841214         0.087006675         0.737803262
     0.238841426         0.587005786         0.737799500
     0.738841448         0.412994171         0.262200415
     0.738841278         0.912993325         0.262196716
     0.238841214         0.412993325         0.737803262
     0.238841426         0.912994171         0.737799500
     0.738841448         0.087005824         0.262200415
     0.738841278         0.587006675         0.262196716
     0.295878596         0.250000000         0.690004415
     0.295877343         0.749999979         0.690008648
     0.795877279         0.250000000         0.309991352
     0.795878554         0.749999979         0.309995585
     0.032370564         0.398062984         0.453954779
     0.032369212         0.898063069         0.453953881
     0.032370564         0.101937037         0.453954779
     0.032369212         0.601936804         0.453953881
     0.532369191         0.101936899         0.546046119
     0.532370551         0.601936931         0.546045178
     0.532369191         0.398063111         0.546046119
     0.532370551         0.898062984         0.546045178
     0.948864020         0.069829016         0.962006300
     0.948865805         0.569829037         0.962003564
     0.948864020         0.430170963         0.962006300
     0.948865805         0.930170963         0.962003564
     0.448865847         0.430170920         0.037996519
     0.448864062         0.930170963         0.037993663
     0.448865847         0.069829074         0.037996519
     0.448864062         0.569829037         0.037993663
     0.137110650         0.250000000         0.378802549
     0.137111723         0.749999979         0.378804858
     0.637111734         0.250000000         0.621195142
     0.637110671         0.749999979         0.621197451
     0.265912898         0.000000000         0.653000486
     0.265912898         0.500000042         0.653000486
     0.765912877        -0.000000000         0.346999536
     0.765912877         0.500000000         0.346999536
     0.201461451         0.321463014         0.834971764
     0.201460134         0.821463353         0.834971935
     0.701460112         0.178536626         0.165028033
     0.701461430         0.678536943         0.165028246
     0.201461451         0.178536986         0.834971764
     0.201460134         0.678536647         0.834971935
     0.701460112         0.321463374         0.165028033
     0.701461430         0.821463014         0.165028246
