Nd Ca Fe  O 
1.0
        5.5798778534         0.0000000000         0.0000000000
        0.0000000000        22.6841869354         0.0000000000
        0.0000000000         0.0000000000        11.1792078018
   Nd   Ca   Fe    O
    8   16   24   64
Direct
     0.250000000         0.000000000         0.116165326
     0.250000000         0.000000000         0.616165326
     0.250000000         0.500000000         0.116165326
     0.250000000         0.500000000         0.616165326
     0.750000000         0.000000000         0.383834664
     0.750000000         0.000000000         0.883834664
     0.750000000         0.500000000         0.383834664
     0.750000000         0.500000000         0.883834664
     0.250000000         0.338453300         0.132710178
     0.250000000         0.338453300         0.632710178
     0.250000000         0.838453089         0.132711137
     0.250000000         0.838453089         0.632711137
     0.750000000         0.161546932         0.367288862
     0.750000000         0.161546932         0.867288862
     0.750000000         0.661546700         0.367289843
     0.750000000         0.661546700         0.867289844
     0.250000000         0.161546711         0.132710178
     0.250000000         0.161546711         0.632710178
     0.250000000         0.661546953         0.132711137
     0.250000000         0.661546953         0.632711137
     0.750000000         0.338453047         0.367288862
     0.750000000         0.338453047         0.867288862
     0.750000000         0.838453258         0.367289843
     0.750000000         0.838453258         0.867289844
     0.250000000         0.086420305         0.373406375
     0.250000000         0.086420305         0.873406375
     0.250000000         0.586417383         0.373404497
     0.250000000         0.586417383         0.873404497
     0.750000000         0.413582659         0.126595481
     0.750000000         0.413582659         0.626595481
     0.750000000         0.913579674         0.126593636
     0.750000000         0.913579674         0.626593636
     0.250000000         0.413579716         0.373406375
     0.250000000         0.413579716         0.873406375
     0.250000000         0.913582617         0.373404497
     0.250000000         0.913582617         0.873404497
     0.750000000         0.086417362         0.126595481
     0.750000000         0.086417362         0.626595481
     0.750000000         0.586420368         0.126593636
     0.750000000         0.586420368         0.626593636
     0.250000000         0.250000000         0.363929353
     0.250000000         0.250000000         0.863929353
     0.250000000         0.749999979         0.363938439
     0.250000000         0.749999979         0.863938439
     0.750000000         0.250000000         0.136061529
     0.750000000         0.250000000         0.636061529
     0.750000000         0.749999979         0.136070657
     0.750000000         0.749999979         0.636070657
     0.000000000         0.394939749         0.250000128
     0.000000000         0.394939749         0.750000128
     0.000000000         0.894939707         0.249999872
     0.000000000         0.894939707         0.749999872
     0.000000000         0.105060251         0.250000128
     0.000000000         0.105060251         0.750000128
     0.000000000         0.605060209         0.249999872
     0.000000000         0.605060209         0.749999872
     0.499999915         0.105060251         0.250000128
     0.499999915         0.105060251         0.750000128
     0.500000043         0.605060209         0.249999872
     0.500000043         0.605060209         0.749999872
     0.499999915         0.394939749         0.250000128
     0.499999915         0.394939749         0.750000128
     0.500000043         0.894939707         0.249999872
     0.500000043         0.894939707         0.749999872
     0.000000000         0.066803323         0.000000000
     0.000000000         0.066803323         0.500000000
     0.000000000         0.566803318         0.000000000
     0.000000000         0.566803318         0.500000000
     0.000000000         0.433196640         0.000000000
     0.000000000         0.433196640         0.500000000
     0.000000000         0.933196682         0.000000000
     0.000000000         0.933196682         0.500000000
     0.499999744         0.433196640         0.000000000
     0.499999744         0.433196640         0.500000000
     0.500000256         0.933196682         0.000000000
     0.500000256         0.933196682         0.500000000
     0.499999744         0.066803323         0.000000000
     0.499999744         0.066803323         0.500000000
     0.500000256         0.566803318         0.000000000
     0.500000256         0.566803318         0.500000000
     0.999997693         0.250000000         0.249998017
     0.999997693         0.250000000         0.749998016
     0.000002334         0.749999979         0.250002004
     0.000002334         0.749999979         0.750002004
     0.500002307         0.250000000         0.249998017
     0.500002307         0.250000000         0.749998016
     0.499997650         0.749999979         0.250002004
     0.499997650         0.749999979         0.750002004
     0.250000000         0.000000000         0.324650372
     0.250000000         0.000000000         0.824650372
     0.250000000         0.499999453         0.324650372
     0.250000000         0.499999453         0.824650372
     0.750000000         0.000000000         0.175349628
     0.750000000         0.000000000         0.675349628
     0.750000000         0.500000547         0.175349628
     0.750000000         0.500000547         0.675349628
     0.250000000         0.324221854         0.433450441
     0.250000000         0.324221854         0.933450441
     0.250000000         0.824222926         0.433451892
     0.250000000         0.824222926         0.933451892
     0.750000000         0.175777053         0.066548093
     0.750000000         0.175777053         0.566548093
     0.750000000         0.675778167         0.066549564
     0.750000000         0.675778167         0.566549564
     0.250000000         0.175778146         0.433450441
     0.250000000         0.175778146         0.933450441
     0.250000000         0.675777074         0.433451892
     0.250000000         0.675777074         0.933451892
     0.750000000         0.324222947         0.066548093
     0.750000000         0.324222947         0.566548093
     0.750000000         0.824221833         0.066549564
     0.750000000         0.824221833         0.566549564
