findsym-output Cmce
1.0
        5.5272130966         0.0000000000         0.0000000000
        0.0000000000        22.5337543488         0.0000000000
        0.0000000000         0.0000000000        11.2791223526
   Nd   Ca   Fe    O
    8   16   24   64
Direct
     0.249995622        -0.000000000         0.116456637
     0.250004378         0.000000000         0.616456626
     0.249995622         0.499999746         0.116456637
     0.250004378         0.499999746         0.616456626
     0.750004357        -0.000000000         0.383543374
     0.749995643        -0.000000000         0.883543331
     0.750004357         0.500000296         0.383543374
     0.749995643         0.500000296         0.883543331
     0.214929470         0.342552808         0.115301020
     0.285070530         0.342552808         0.615301010
     0.285062377         0.842553231         0.115306157
     0.214937623         0.842553231         0.615306210
     0.714937644         0.157446759         0.384693833
     0.785062399         0.157446759         0.884693833
     0.785070508         0.657447150         0.384698990
     0.714929449         0.657447150         0.884698990
     0.214929470         0.157447171         0.115301020
     0.285070530         0.157447171         0.615301010
     0.285062377         0.657446727         0.115306157
     0.214937623         0.657446727         0.615306210
     0.714937644         0.342553252         0.384693833
     0.785062399         0.342553252         0.884693833
     0.785070508         0.842552808         0.384698990
     0.714929449         0.842552808         0.884698990
     0.239511130         0.087090424         0.368607528
     0.260488870         0.087090424         0.868607528
     0.260483392         0.587091128         0.368608331
     0.239516630         0.587091128         0.868608289
     0.739516673         0.412908914         0.131391690
     0.760483327         0.412908914         0.631391626
     0.760488848         0.912909549         0.131392451
     0.739511152         0.912909549         0.631392472
     0.239511130         0.412909592         0.368607528
     0.260488870         0.412909592         0.868607528
     0.260483392         0.912908872         0.368608331
     0.239516630         0.912908872         0.868608289
     0.739516673         0.087091101         0.131391690
     0.760483327         0.087091101         0.631391626
     0.760488848         0.587090451         0.131392451
     0.739511152         0.587090451         0.631392472
     0.188381440         0.250000000         0.344463169
     0.311618560         0.250000000         0.844463147
     0.311623090         0.750000021         0.344465198
     0.188376889         0.750000021         0.844465177
     0.688376889         0.250000000         0.155534802
     0.811623111         0.250000000         0.655534823
     0.811618539         0.750000021         0.155536810
     0.688381418         0.750000021         0.655536810
     0.975127435         0.396019333         0.258166070
     0.024875760         0.396016921         0.741827884
     0.024872541         0.896019333         0.241833930
     0.975124243         0.896016794         0.758172158
     0.975127435         0.103980667         0.258166070
     0.024875760         0.103983100         0.741827884
     0.024872541         0.603980582         0.241833930
     0.975124243         0.603982994         0.758172158
     0.475124200         0.103983100         0.241827863
     0.524872608         0.103980667         0.758166070
     0.524875800         0.603982994         0.258172116
     0.475127392         0.603980582         0.741833888
     0.475124200         0.396016921         0.241827863
     0.524872608         0.396019333         0.758166070
     0.524875800         0.896016794         0.258172116
     0.475127392         0.896019333         0.741833888
     0.999992667         0.070181407         0.999997548
     0.000005727         0.067962373         0.499997379
     0.999994306         0.567962330         0.000002629
     0.000007306         0.570181359         0.500002367
     0.999992667         0.429818598         0.999997548
     0.000005727         0.432037627         0.499997379
     0.999994306         0.932037670         0.000002629
     0.000007306         0.929818641         0.500002367
     0.499994263         0.432037627         0.999997379
     0.500007290         0.429818598         0.499997590
     0.499992710         0.929818641         0.000002414
     0.500005737         0.932037670         0.500002621
     0.499994263         0.067962373         0.999997379
     0.500007290         0.070181407         0.499997590
     0.499992710         0.570181359         0.000002414
     0.500005737         0.567962330         0.500002621
     0.841011349         0.250000000         0.311530731
     0.158992803         0.250000000         0.688466838
     0.158988640         0.750000021         0.188469248
     0.841007208         0.750000021         0.811533119
     0.341007208         0.250000000         0.188466838
     0.658988651         0.250000000         0.811530752
     0.658992749         0.750000021         0.311533162
     0.341011371         0.750000021         0.688469248
     0.250007096         0.000000000         0.324857823
     0.249992904         0.000000000         0.824857781
     0.250007096         0.500000042         0.324857823
     0.249992904         0.500000042         0.824857781
     0.749992883        -0.000000000         0.175142187
     0.750007117         0.000000000         0.675142177
     0.749992883         0.499999958         0.175142187
     0.750007117         0.499999958         0.675142177
     0.270798275         0.321788009         0.417513605
     0.229201747         0.321788009         0.917513605
     0.229208303         0.821788179         0.417517367
     0.270791718         0.821788179         0.917517325
     0.770791740         0.178211842         0.082482638
     0.729208260         0.178211842         0.582482633
     0.729201790         0.678211991         0.082486411
     0.770798210         0.678211991         0.582486395
     0.270798275         0.178211969         0.417513605
     0.229201747         0.178211969         0.917513605
     0.229208303         0.678211864         0.417517367
     0.270791718         0.678211864         0.917517325
     0.770791740         0.321788158         0.082482638
     0.729208260         0.321788158         0.582482633
     0.729201790         0.821788009         0.082486411
     0.770798210         0.821788009         0.582486395
